
Gurobi 10.0.1 (linux64) logging started Sun Nov 26 15:48:30 2023

Set parameter LogFile to value "ArtificialInstance/ExperimentV2/S4T3K2/AdRo/gurobiSpRo27.txt"
Gurobi Optimizer version 10.0.1 build v10.0.1rc0 (linux64)

CPU model: AMD EPYC 7H12 64-Core Processor, instruction set [SSE2|AVX|AVX2]
Thread count: 128 physical cores, 128 logical processors, using up to 32 threads

Academic license 656792 - for non-commercial use only - registered to b.___@student.vu.nl
Optimize a model with 8584 rows, 8416 columns and 32567 nonzeros
Model fingerprint: 0x712d4321
Variable types: 1 continuous, 8415 integer (8415 binary)
Coefficient statistics:
  Matrix range     [1e+00, 4e+01]
  Objective range  [1e+00, 2e+01]
  Bounds range     [1e+00, 1e+00]
  RHS range        [1e+00, 1e+00]
Presolve removed 3020 rows and 2786 columns
Presolve time: 0.10s
Presolved: 5564 rows, 5630 columns, 21743 nonzeros
Variable types: 1 continuous, 5629 integer (5629 binary)
Found heuristic solution: objective 66.9977489

Root relaxation: objective 6.633081e+01, 838 iterations, 0.02 seconds (0.01 work units)

    Nodes    |    Current Node    |     Objective Bounds      |     Work
 Expl Unexpl |  Obj  Depth IntInf | Incumbent    BestBd   Gap | It/Node Time

H    0     0                      66.3308071   52.59405  20.7%     -    0s
     0     0          -    0        66.33081   66.33081  0.00%     -    0s

Explored 1 nodes (1203 simplex iterations) in 0.19 seconds (0.12 work units)
Thread count was 32 (of 128 available processors)

Solution count 2: 66.3308 66.9977 

Optimal solution found (tolerance 1.00e-04)
Best objective 6.633080710537e+01, best bound 6.633080710537e+01, gap 0.0000%
